Nb of jobs, Nb of Machines, Time seed, Machine seed, Upper bound, Lower bound
5,5,-1,-1,-1,-1
Times
16,88,81,47,49
78,10,3,49,94
82,67,20,81,89
23,46,63,85,84
4,29,62,18,94
Machines
5,1,3,2,4
3,4,2,1,5
1,4,5,3,2
5,3,2,1,4
5,1,4,3,2
